
        $ From http://www.csplib.org/Problems/prob009/data/helmut.pdf
        $ Problem number 27
        $ Sequence length : 24
        language ESSENCE' 1.0
        letting sizemaster be 201
        letting sizes be sequence(1,3,4,6,9,10,11,12,17,18,20,21,22,23,26,38,40,46,50,52,53,58,98,103)
        